3	25
614	877	794	456	824	425	427	340	374	536	444	297	318	115	248	628	582	11	23	296	427	203	106	74	586	
654	974	212	331	934	130	568	654	995	988	97	178	896	72	601	825	16	990	102	665	830	291	166	804	450	
1119	1119	1119	
